;; sequence(s): A143432
;; terms: 1 1 0 0 2 2 0 0 2 2 0 0 2 2 0 0 2 2 0 0
;; small program: loop(if x <= 0 then 2 else 0, x div 2, 1)
;; fast program: loop(1, 2 - x, loop(0, (x mod (2 + 2)) - 1, 2))
(set-logic UFNIA)
(define-fun divf ((a Int) (b Int)) Int (ite (< 0 b) (div a b) (div (- a) (- b))))
(define-fun modf ((a Int) (b Int)) Int (ite (< 0 b) (mod a b) (- (mod (- a) (- b)))))
(declare-fun f0 (Int) Int)
(declare-fun g0 (Int) Int)
(declare-fun h0 () Int)
(declare-fun u0 (Int Int) Int)
(declare-fun v0 (Int) Int)
(declare-fun small (Int) Int)
(declare-fun f1 () Int)
(declare-fun g1 (Int) Int)
(declare-fun f2 () Int)
(declare-fun g2 (Int) Int)
(declare-fun h2 () Int)
(declare-fun u2 (Int Int) Int)
(declare-fun v2 (Int) Int)
(declare-fun h1 (Int) Int)
(declare-fun u1 (Int Int) Int)
(declare-fun v1 (Int) Int)
(declare-fun fast (Int) Int)
(assert (forall ((x Int)) (= (f0 x) (ite (<= x 0) 2 0))))
(assert (forall ((x Int)) (= (g0 x) (divf x 2))))
(assert (= h0 1))
(assert (forall ((x Int) (y Int)) (= (u0 x y) (ite (<= x 0) y (f0 (u0 (- x 1) y))))))
(assert (forall ((x Int)) (= (v0 x) (u0 (g0 x) h0))))
(assert (forall ((x Int)) (= (small x) (v0 x))))
(assert (= f1 1))
(assert (forall ((x Int)) (= (g1 x) (- 2 x))))
(assert (= f2 0))
(assert (forall ((x Int)) (= (g2 x) (- (modf x (+ 2 2)) 1))))
(assert (= h2 2))
(assert (forall ((x Int) (y Int)) (= (u2 x y) (ite (<= x 0) y f2))))
(assert (forall ((x Int)) (= (v2 x) (u2 (g2 x) h2))))
(assert (forall ((x Int)) (= (h1 x) (v2 x))))
(assert (forall ((x Int) (y Int)) (= (u1 x y) (ite (<= x 0) y f1))))
(assert (forall ((x Int)) (= (v1 x) (u1 (g1 x) (h1 x)))))
(assert (forall ((x Int)) (= (fast x) (v1 x))))
(assert (exists ((c Int)) (and (>= c 0) (not (= (small c) (fast c))))))
(check-sat)
